MILP_speck/speck32diff-round5.sol
# Objective value = 9
pro0Rd0 0
pro1Rd0 1
pro2Rd0 0
pro3Rd0 1
pro4Rd0 0
pro5Rd0 1
pro6Rd0 0
pro7Rd0 0
pro8Rd0 0
pro9Rd0 0
pro10Rd0 0
pro11Rd0 0
pro12Rd0 1
pro13Rd0 0
pro14Rd0 0
pro0Rd1 0
pro1Rd1 0
pro2Rd1 0
pro3Rd1 0
pro4Rd1 0
pro5Rd1 0
pro6Rd1 0
pro7Rd1 0
pro8Rd1 1
pro9Rd1 0
pro10Rd1 1
pro11Rd1 0
pro12Rd1 0
pro13Rd1 0
pro14Rd1 0
pro0Rd2 0
pro1Rd2 0
pro2Rd2 0
pro3Rd2 0
pro4Rd2 0
pro5Rd2 0
pro6Rd2 0
pro7Rd2 0
pro8Rd2 0
pro9Rd2 0
pro10Rd2 0
pro11Rd2 0
pro12Rd2 0
pro13Rd2 0
pro14Rd2 0
pro0Rd3 0
pro1Rd3 0
pro2Rd3 0
pro3Rd3 0
pro4Rd3 0
pro5Rd3 0
pro6Rd3 1
pro7Rd3 0
pro8Rd3 0
pro9Rd3 0
pro10Rd3 0
pro11Rd3 0
pro12Rd3 0
pro13Rd3 0
pro14Rd3 0
pro0Rd4 0
pro1Rd4 0
pro2Rd4 0
pro3Rd4 0
pro4Rd4 0
pro5Rd4 0
pro6Rd4 1
pro7Rd4 0
pro8Rd4 0
pro9Rd4 0
pro10Rd4 0
pro11Rd4 0
pro12Rd4 0
pro13Rd4 1
pro14Rd4 0
p0 0
p1 0
p2 0
p3 0
p4 0
p5 0
p6 1
p7 0
p8 0
p9 0
p10 0
p11 1
p12 0
p13 0
p14 0
p15 1
p16 0
p17 0
p18 0
p19 0
p20 1
p21 0
p22 1
p23 0
p24 0
p25 0
p26 0
p27 0
p28 0
p29 1
p30 0
p31 0
p16Rd1 0
p0Rd1 0
temp0Rnd0 0
p17Rd1 0
p1Rd1 0
temp1Rnd0 0
p18Rd1 0
p2Rd1 1
temp2Rnd0 1
p19Rd1 0
p3Rd1 0
temp3Rnd0 0
p20Rd1 0
p4Rd1 1
temp4Rnd0 1
p21Rd1 0
p5Rd1 0
temp5Rnd0 0
p22Rd1 0
p6Rd1 0
temp6Rnd0 0
p23Rd1 0
p7Rd1 0
temp7Rnd0 0
p24Rd1 0
p8Rd1 0
temp8Rnd0 0
p25Rd1 0
p9Rd1 0
temp9Rnd0 0
p26Rd1 0
p10Rd1 0
temp10Rnd0 0
p27Rd1 1
p11Rd1 0
temp11Rnd0 1
p28Rd1 0
p12Rd1 0
temp12Rnd0 0
p29Rd1 0
p13Rd1 0
temp13Rnd0 0
p30Rd1 0
p14Rd1 0
temp14Rnd0 0
p31Rd1 0
p15Rd1 0
temp15Rnd0 0
temp0 0
p16Rd2 0
p0Rd2 0
temp0Rnd1 0
p17Rd2 0
p1Rd2 0
temp1Rnd1 0
p18Rd2 0
p2Rd2 0
temp2Rnd1 0
p19Rd2 0
p3Rd2 0
temp3Rnd1 0
p20Rd2 0
p4Rd2 0
temp4Rnd1 0
p21Rd2 0
p5Rd2 0
temp5Rnd1 0
p22Rd2 0
p6Rd2 0
temp6Rnd1 0
p23Rd2 0
p7Rd2 0
temp7Rnd1 0
p24Rd2 0
p8Rd2 0
temp8Rnd1 0
p25Rd2 0
p9Rd2 1
temp9Rnd1 1
p26Rd2 0
p10Rd2 0
temp10Rnd1 0
p27Rd2 0
p11Rd2 0
temp11Rnd1 0
p28Rd2 0
p12Rd2 0
temp12Rnd1 0
p29Rd2 0
p13Rd2 0
temp13Rnd1 0
p30Rd2 0
p14Rd2 0
temp14Rnd1 0
p31Rd2 0
p15Rd2 0
temp15Rnd1 0
temp1 0
p16Rd3 1
p0Rd3 1
temp0Rnd2 1
p17Rd3 0
p1Rd3 0
temp1Rnd2 0
p18Rd3 0
p2Rd3 0
temp2Rnd2 0
p19Rd3 0
p3Rd3 0
temp3Rnd2 0
p20Rd3 0
p4Rd3 0
temp4Rnd2 0
p21Rd3 0
p5Rd3 0
temp5Rnd2 0
p22Rd3 0
p6Rd3 0
temp6Rnd2 0
p23Rd3 0
p7Rd3 0
temp7Rnd2 0
p24Rd3 0
p8Rd3 0
temp8Rnd2 0
p25Rd3 0
p9Rd3 0
temp9Rnd2 0
p26Rd3 0
p10Rd3 0
temp10Rnd2 0
p27Rd3 0
p11Rd3 0
temp11Rnd2 0
p28Rd3 0
p12Rd3 0
temp12Rnd2 0
p29Rd3 0
p13Rd3 0
temp13Rnd2 0
p30Rd3 0
p14Rd3 0
temp14Rnd2 0
p31Rd3 0
p15Rd3 0
temp15Rnd2 0
temp2 0
p16Rd4 1
p0Rd4 1
temp0Rnd3 1
p17Rd4 0
p1Rd4 0
temp1Rnd3 0
p18Rd4 0
p2Rd4 0
temp2Rnd3 0
p19Rd4 0
p3Rd4 0
temp3Rnd3 0
p20Rd4 0
p4Rd4 0
temp4Rnd3 0
p21Rd4 0
p5Rd4 0
temp5Rnd3 0
p22Rd4 0
p6Rd4 0
temp6Rnd3 0
p23Rd4 1
p7Rd4 1
temp7Rnd3 1
p24Rd4 0
p8Rd4 0
temp8Rnd3 0
p25Rd4 0
p9Rd4 0
temp9Rnd3 0
p26Rd4 0
p10Rd4 0
temp10Rnd3 0
p27Rd4 0
p11Rd4 0
temp11Rnd3 0
p28Rd4 0
p12Rd4 0
temp12Rnd3 0
p29Rd4 0
p13Rd4 0
temp13Rnd3 0
p30Rd4 1
p14Rd4 0
temp14Rnd3 1
p31Rd4 0
p15Rd4 0
temp15Rnd3 0
temp3 0
p16Rd5 1
p0Rd5 1
temp0Rnd4 1
p17Rd5 0
p1Rd5 0
temp1Rnd4 0
p18Rd5 0
p2Rd5 0
temp2Rnd4 0
p19Rd5 0
p3Rd5 0
temp3Rnd4 0
p20Rd5 0
p4Rd5 0
temp4Rnd4 0
p21Rd5 1
p5Rd5 0
temp5Rnd4 1
p22Rd5 0
p6Rd5 0
temp6Rnd4 0
p23Rd5 0
p7Rd5 0
temp7Rnd4 0
p24Rd5 0
p8Rd5 0
temp8Rnd4 0
p25Rd5 0
p9Rd5 0
temp9Rnd4 0
p26Rd5 0
p10Rd5 0
temp10Rnd4 0
p27Rd5 0
p11Rd5 0
temp11Rnd4 0
p28Rd5 1
p12Rd5 0
temp12Rnd4 1
p29Rd5 0
p13Rd5 0
temp13Rnd4 0
p30Rd5 1
p14Rd5 0
temp14Rnd4 1
p31Rd5 0
p15Rd5 0
temp15Rnd4 0
temp4 0
